n= 4
m= 50
1000
2000
2500
3000
675	18	6
1246	24	6
1117	15	5
790	8	8
1859	7	7
502	36	9
699	32	8
272	18	6
1604	14	7
1907	20	5
1335	7	7
1530	21	7
793	36	9
1615	18	9
974	24	8
1432	28	7
693	10	5
790	36	9
755	7	7
1712	27	9
1585	9	9
1676	15	5
1085	9	9
942	27	9
1146	8	8
1447	5	5
832	24	8
688	7	7
1138	21	7
1136	18	6
575	9	9
2152	18	6
411	10	5
2048	14	7
653	32	8
2141	24	6
2363	20	5
575	5	5
1846	28	7
2396	7	7
1101	6	6
1677	14	7
850	36	9
735	14	7
550	36	9
2080	27	9
904	9	9
946	10	5
1689	16	8
2309	24	6
